10
0 4 16 78 41 69 15 47 36 64
4 0 32 0 28 20 18 16 0 6
16 32 0 43 4 46 7 13 0 59
78 0 43 0 4 22 20 2 3 80
41 28 4 4 0 14 27 58 23 41
69 20 46 22 14 0 19 43 13 30
15 18 7 20 27 19 0 13 30 4
47 16 13 2 58 43 13 0 33 28
36 0 0 3 23 13 30 33 0 14
64 6 59 80 41 30 4 28 14 0